&CONTROL
    calculation            = 'relax'
    prefix                 = 'Zr6CoTe2'
    outdir                 = './tmp/'
    forc_conv_thr          =  1.00000e-03
    max_seconds            =  8.64000e+04
    nstep                  =  100
    pseudo_dir             = '/home/tauqeer/Zr6MTe2/sudopoten'
/

&SYSTEM
    a                         =  7.77837
    c                         =  3.63354
    degauss                   =  1.00000e-02
    ecutrho                   =  3.60000e+02
    ecutwfc                   =  6.00000e+01
    ibrav                     =  4
    nat                       =  2
    nspin                     =  1
    ntyp                      =  1
    occupations               = "smearing"
    smearing                  = "gaussian"
/

&ELECTRONS
    conv_thr                  =  1.00000e-06
    electron_maxstep          =  200
    mixing_beta               =  4.00000e-01
    startingpot               = "atomic"
    startingwfc               = "atomic+random"
/

&IONS
    ion_dynamics              = "bfgs"
/

&CELL
/

K_POINTS {automatic}
 3  3  4  0 0 0

ATOMIC_SPECIES
Te    127.60000  Te.pbe-rrkj.upf

ATOMIC_POSITIONS {angstrom}
Te      3.889185   2.245422   0.000000
Te     -0.000000   4.490844   0.000000



