&CONTROL
    calculation            = 'relax'
    prefix                 = 'Zr6CoTe2'
    outdir                 = './tmp/'
    forc_conv_thr          =  1.00000e-03
    max_seconds            =  8.64000e+04
    nstep                  =  100
    pseudo_dir             = '/home/tauqeer/Zr6MTe2/sudopoten'
/

&SYSTEM
    a                         =  7.77837
    c                         =  3.63354
    degauss                   =  1.00000e-02
    ecutrho                   =  3.60000e+02
    ecutwfc                   =  6.00000e+01
    ibrav                     =  4
    nat                       =  6
    nspin                     =  1
    ntyp                      =  1
    occupations               = "smearing"
    smearing                  = "gaussian"
/

&ELECTRONS
    conv_thr                  =  1.00000e-06
    electron_maxstep          =  200
    mixing_beta               =  4.00000e-01
    startingpot               = "atomic"
    startingwfc               = "atomic+random"
/

&IONS
    ion_dynamics              = "bfgs"
/

&CELL
/

K_POINTS {automatic}
 3  3  4  0 0 0

ATOMIC_SPECIES
Zr     91.22400  Zr.pbe-nsp-van.upf

ATOMIC_POSITIONS {angstrom}
Zr      0.923272   1.599154   0.000000
Zr      5.931826   0.000000   0.000000
Zr     -2.965913   5.137112   0.000000
Zr      2.314801   4.009352   1.816769
Zr      3.148769   0.000000   1.816769
Zr     -1.574384   2.726914   1.816769




