&CONTROL
    calculation       = 'nscf'
    prefix            = 'Zr6NiTe2'
    outdir            = './tmp/'
    forc_conv_thr     =  1.00000e-03
    max_seconds       =  8.64000e+04
    nstep             =  100
    restart_mode      = 'restart'
    pseudo_dir        = '/home/tauqeer/Zr6MTe2/sudopoten'
/

&SYSTEM
    a                  =  7.73440
    c                  =  3.73249
    degauss            =  1.00000e-02
    ecutrho            =  3.60000e+02
    ecutwfc            =  6.00000e+01
    ibrav              =  4
    nat                =  9
    nspin              =  1
    ntyp               =  3
    occupations        = "smearing"
    smearing           = "gaussian"
/

&ELECTRONS
    conv_thr           =  1.00000e-06
    electron_maxstep   =  200
    mixing_beta        =  4.00000e-01
    startingpot        = "atomic"
    startingwfc        = "atomic+random"
/

&IONS
    ion_dynamics       = "bfgs"
/

&CELL
/

K_POINTS {automatic}
 10  10  12  0 0 0

ATOMIC_SPECIES
Zr     91.22400  Zr.pbe-nsp-van.upf
Ni     58.69340  Ni.pbe-nd-rrkjus.upf
Te    127.60000  Te.pbe-rrkj.upf

ATOMIC_POSITIONS {angstrom}
Zr      1.835930   0.000000   0.000000
Zr     -0.917965   1.589962   0.000000
Zr      2.939237   5.090908   0.000000
Zr      4.569674   0.000000   1.856244
Zr     -2.284837   3.957454   1.856244
Zr      1.572365   2.723416   1.856244
Ni      0.000000   0.000000   1.856244
Te     -0.000000   4.453913   0.000000
Te      3.857202   2.226957   0.000000



    restart_mode     = 'from_scratch'
    pseudo_dir       = '/home/tauqeer/Zr6MTe2/sudopoten'
/

&SYSTEM
    a                  =  7.73440
    c                         =  3.73249
    degauss                   =  1.00000e-02
    ecutrho                   =  3.60000e+02
    ecutwfc                   =  6.00000e+01
    ibrav                     =  4
    nat                       =  9
    nspin                     =  1
    ntyp                      =  3
    occupations               = "smearing"
    smearing                  = "gaussian"
/

&ELECTRONS
    conv_thr         =  1.00000e-06
    electron_maxstep =  200
    mixing_beta      =  4.00000e-01
    startingpot      = "atomic"
    startingwfc      = "atomic+random"
/

&IONS
    ion_dynamics     = "bfgs"
/

&CELL
/

K_POINTS {automatic}
 3  3  4  0 0 0

ATOMIC_SPECIES
Zr     91.22400  Zr.pbe-nsp-van.upf
Ni     58.69340  Ni.pbe-nd-rrkjus.upf
Te    127.60000  Te.pbe-rrkj.upf

ATOMIC_POSITIONS {angstrom}
Zr      1.835930   0.000000   0.000000
Zr     -0.917965   1.589962   0.000000
Zr      2.939237   5.090908   0.000000
Zr      4.569674   0.000000   1.856244
Zr     -2.284837   3.957454   1.856244
Zr      1.572365   2.723416   1.856244
Ni      0.000000   0.000000   1.856244
Te     -0.000000   4.453913   0.000000
Te      3.857202   2.226957   0.000000



