&CONTROL
    calculation           = 'nscf'
    prefix                = 'Zr6CoTe2'
    outdir                = './tmp/'
    forc_conv_thr         =  1.00000e-03
    max_seconds           =  8.64000e+04
    nstep                 =  100
    pseudo_dir            = '/home/tauqeer/Zr6MTe2/sudopoten'
    restart_mode          = 'restart'
/

&SYSTEM
    a                     =  7.77837
    c                     =  3.63354
    degauss               =  1.00000e-02
    ecutrho               =  3.60000e+02
    ecutwfc               =  6.00000e+01
    ibrav                 =  4
    nat                   =  9
    nspin                 =  1
    ntyp                  =  3
    occupations           = "smearing"
    smearing              = "gaussian"
/

&ELECTRONS
    conv_thr              =  1.00000e-06
    electron_maxstep      =  200
    mixing_beta           =  4.00000e-01
    startingpot           = "atomic"
    startingwfc           = "atomic+random"
/

&IONS
    ion_dynamics          = "bfgs"
/

&CELL
/

K_POINTS {automatic}
 10  10  12  0 0 0

ATOMIC_SPECIES
Zr     91.22400  Zr.pbe-nsp-van.upf
Co     58.93320  Co.pbe-nd-rrkjus.upf
Te    127.60000  Te.pbe-rrkj.upf

ATOMIC_POSITIONS {angstrom}
Zr      0.923272   1.599154   0.000000
Zr      5.931826   0.000000   0.000000
Zr     -2.965913   5.137112   0.000000
Zr      2.314801   4.009352   1.816769
Zr      3.148769   0.000000   1.816769
Zr     -1.574384   2.726914   1.816769
Co      0.000000   0.000000   1.816769
Te      3.889185   2.245422   0.000000
Te     -0.000000   4.490844   0.000000



